16      1       
8       
0       0       5       2       3       4       5       6       
2       5       1       15      
2       1       7       7       8       12      13      8       12      13      
6       2       3       8       12      13      
4       5       2       9       11      
4       1       1       10      
5       2       1       15      
3       2       2       9       11      
3       3       1       16      
8       3       1       16      
1       2       3       14      15      15      
5       4       3       14      15      15      
1       2       1       15      
5       3       1       16      
8       2       1       16      
0       0       0       
